networks/zoo_21_54/zoo_21_54-lower.txt
Number of groups: 8
Flow 1: {1 2 0} {2 14 0} 
Flow 2: {1 3 0} {3 15 0} 
Flow 3: {1 4 0} {4 16 0} 
Flow 4: {1 5 0} {5 17 0} 
Flow 5: {4 7 0} {7 19 0} 
Flow 6: {7 8 0} {8 20 0} 
Flow 7: {4 9 0} {9 21 0} 
Flow 8: {2 1 0} {1 13 0} 
Flow 14: {3 1 0} Flow 20: {4 1 0} Flow 27: {5 1 0} Flow 30: {6 1 0} Flow 38: {7 4 0} Flow 45: {8 7 0} Flow 48: {9 4 0} Time taken running everything: 0 seconds
