networks/zoo_21_54/zoo_21_54-lower.sol
<?xml version = "1.0" encoding="UTF-8" standalone="yes"?>
<CPLEXSolution version="1.2">
 <header
   problemName="networks/zoo_21_54/zoo_21_54-lower.lp"
   solutionName="incumbent"
   solutionIndex="-1"
   objectiveValue="8"
   solutionTypeValue="3"
   solutionTypeString="primal"
   solutionStatusValue="101"
   solutionStatusString="integer optimal solution"
   solutionMethodString="mip"
   primalFeasible="1"
   dualFeasible="1"
   MIPNodes="0"
   MIPIterations="0"
   writeLevel="3"/>
 <quality
   epInt="1.0000000000000001e-05"
   epRHS="9.9999999999999995e-07"
   maxIntInfeas="0"
   maxPrimalInfeas="0"
   maxX="1"
   maxSlack="1"/>
 <variables>
  <variable name="Y(1,2)" index="1" value="1"/>
  <variable name="Y(2,3)" index="19" value="1"/>
  <variable name="Y(3,4)" index="37" value="1"/>
  <variable name="Y(4,5)" index="55" value="1"/>
  <variable name="Y(5,7)" index="74" value="1"/>
  <variable name="Y(6,8)" index="92" value="1"/>
  <variable name="Y(7,9)" index="110" value="1"/>
  <variable name="Y(8,1)" index="119" value="1"/>
  <variable name="X(1,2,1)" index="918" value="1"/>
  <variable name="X(1,3,2)" index="973" value="1"/>
  <variable name="X(1,4,3)" index="1028" value="1"/>
  <variable name="X(1,5,4)" index="1083" value="1"/>
  <variable name="X(1,13,8)" index="1141" value="1"/>
  <variable name="X(2,1,8)" index="1195" value="1"/>
  <variable name="X(2,14,1)" index="1242" value="1"/>
  <variable name="X(3,1,14)" index="1309" value="1"/>
  <variable name="X(3,15,2)" index="1351" value="1"/>
  <variable name="X(4,1,20)" index="1423" value="1"/>
  <variable name="X(4,7,5)" index="1462" value="1"/>
  <variable name="X(4,9,7)" index="1518" value="1"/>
  <variable name="X(4,16,3)" index="1568" value="1"/>
  <variable name="X(5,1,27)" index="1646" value="1"/>
  <variable name="X(5,17,4)" index="1677" value="1"/>
  <variable name="X(6,1,30)" index="1757" value="1"/>
  <variable name="X(7,4,38)" index="1819" value="1"/>
  <variable name="X(7,8,6)" index="1841" value="1"/>
  <variable name="X(7,19,5)" index="1894" value="1"/>
  <variable name="X(8,7,45)" index="1988" value="1"/>
  <variable name="X(8,20,6)" index="2003" value="1"/>
  <variable name="X(9,4,48)" index="2099" value="1"/>
  <variable name="X(9,21,7)" index="2112" value="1"/>
 </variables>
</CPLEXSolution>
